p cnf 386 460
1 3 -2 21 22 0
1 3 -2 21 -22 0
1 3 -2 -21 23 0
1 3 -2 -21 -23 0
-13 3 4 24 25 0
-13 3 4 24 -25 0
-13 3 4 -24 26 0
-13 3 4 -24 -26 0
17 19 -14 27 28 0
17 19 -14 27 -28 0
17 19 -14 -27 29 0
17 19 -14 -27 -29 0
11 -17 -9 30 31 0
11 -17 -9 30 -31 0
11 -17 -9 -30 32 0
11 -17 -9 -30 -32 0
-2 -7 9 33 34 0
-2 -7 9 33 -34 0
-2 -7 9 -33 35 0
-2 -7 9 -33 -35 0
5 20 -13 36 37 0
5 20 -13 36 -37 0
5 20 -13 -36 38 0
5 20 -13 -36 -38 0
1 14 20 39 40 0
1 14 20 39 -40 0
1 14 20 -39 41 0
1 14 20 -39 -41 0
-4 3 1 42 43 0
-4 3 1 42 -43 0
-4 3 1 -42 44 0
-4 3 1 -42 -44 0
14 15 -2 45 46 0
14 15 -2 45 -46 0
14 15 -2 -45 47 0
14 15 -2 -45 -47 0
-1 3 -9 48 49 0
-1 3 -9 48 -49 0
-1 3 -9 -48 50 0
-1 3 -9 -48 -50 0
2 1 11 51 52 0
2 1 11 51 -52 0
2 1 11 -51 53 0
2 1 11 -51 -53 0
-9 -15 7 54 55 0
-9 -15 7 54 -55 0
-9 -15 7 -54 56 0
-9 -15 7 -54 -56 0
-16 2 -10 57 58 0
-16 2 -10 57 -58 0
-16 2 -10 -57 59 0
-16 2 -10 -57 -59 0
7 20 -17 60 61 0
7 20 -17 60 -61 0
7 20 -17 -60 62 0
7 20 -17 -60 -62 0
-10 5 -16 63 64 0
-10 5 -16 63 -64 0
-10 5 -16 -63 65 0
-10 5 -16 -63 -65 0
17 -3 -18 66 67 0
17 -3 -18 66 -67 0
17 -3 -18 -66 68 0
17 -3 -18 -66 -68 0
15 -19 -2 69 70 0
15 -19 -2 69 -70 0
15 -19 -2 -69 71 0
15 -19 -2 -69 -71 0
-6 16 -20 72 73 0
-6 16 -20 72 -73 0
-6 16 -20 -72 74 0
-6 16 -20 -72 -74 0
-6 2 12 75 76 0
-6 2 12 75 -76 0
-6 2 12 -75 77 0
-6 2 12 -75 -77 0
5 8 -1 78 79 0
5 8 -1 78 -79 0
5 8 -1 -78 80 0
5 8 -1 -78 -80 0
20 12 -16 81 82 0
20 12 -16 81 -82 0
20 12 -16 -81 83 0
20 12 -16 -81 -83 0
2 20 10 84 85 0
2 20 10 84 -85 0
2 20 10 -84 86 0
2 20 10 -84 -86 0
-13 -16 19 87 88 0
-13 -16 19 87 -88 0
-13 -16 19 -87 89 0
-13 -16 19 -87 -89 0
-8 -20 2 90 91 0
-8 -20 2 90 -91 0
-8 -20 2 -90 92 0
-8 -20 2 -90 -92 0
5 19 13 93 94 0
5 19 13 93 -94 0
5 19 13 -93 95 0
5 19 13 -93 -95 0
-3 1 -13 96 97 0
-3 1 -13 96 -97 0
-3 1 -13 -96 98 0
-3 1 -13 -96 -98 0
13 -9 15 99 100 0
13 -9 15 99 -100 0
13 -9 15 -99 101 0
13 -9 15 -99 -101 0
-5 -19 4 102 103 0
-5 -19 4 102 -103 0
-5 -19 4 -102 104 0
-5 -19 4 -102 -104 0
5 13 6 105 106 0
5 13 6 105 -106 0
5 13 6 -105 107 0
5 13 6 -105 -107 0
-8 6 3 108 109 0
-8 6 3 108 -109 0
-8 6 3 -108 110 0
-8 6 3 -108 -110 0
-15 -8 -17 111 112 0
-15 -8 -17 111 -112 0
-15 -8 -17 -111 113 0
-15 -8 -17 -111 -113 0
-4 5 6 114 115 0
-4 5 6 114 -115 0
-4 5 6 -114 116 0
-4 5 6 -114 -116 0
-19 8 -13 117 118 0
-19 8 -13 117 -118 0
-19 8 -13 -117 119 0
-19 8 -13 -117 -119 0
20 -13 -2 120 121 0
20 -13 -2 120 -121 0
20 -13 -2 -120 122 0
20 -13 -2 -120 -122 0
11 -5 -14 123 124 0
11 -5 -14 123 -124 0
11 -5 -14 -123 125 0
11 -5 -14 -123 -125 0
17 -19 14 126 127 0
17 -19 14 126 -127 0
17 -19 14 -126 128 0
17 -19 14 -126 -128 0
-13 -17 -9 129 130 0
-13 -17 -9 129 -130 0
-13 -17 -9 -129 131 0
-13 -17 -9 -129 -131 0
-7 11 5 132 133 0
-7 11 5 132 -133 0
-7 11 5 -132 134 0
-7 11 5 -132 -134 0
17 -6 18 135 136 0
17 -6 18 135 -136 0
17 -6 18 -135 137 0
17 -6 18 -135 -137 0
-20 -3 11 138 139 0
-20 -3 11 138 -139 0
-20 -3 11 -138 140 0
-20 -3 11 -138 -140 0
-13 -8 -2 141 142 0
-13 -8 -2 141 -142 0
-13 -8 -2 -141 143 0
-13 -8 -2 -141 -143 0
5 17 11 144 145 0
5 17 11 144 -145 0
5 17 11 -144 146 0
5 17 11 -144 -146 0
-7 -4 11 147 148 0
-7 -4 11 147 -148 0
-7 -4 11 -147 149 0
-7 -4 11 -147 -149 0
18 2 3 150 151 0
18 2 3 150 -151 0
18 2 3 -150 152 0
18 2 3 -150 -152 0
10 3 13 153 154 0
10 3 13 153 -154 0
10 3 13 -153 155 0
10 3 13 -153 -155 0
-2 9 3 156 157 0
-2 9 3 156 -157 0
-2 9 3 -156 158 0
-2 9 3 -156 -158 0
2 5 -12 159 160 0
2 5 -12 159 -160 0
2 5 -12 -159 161 0
2 5 -12 -159 -161 0
-10 -12 -19 162 163 0
-10 -12 -19 162 -163 0
-10 -12 -19 -162 164 0
-10 -12 -19 -162 -164 0
7 -9 -13 165 166 0
7 -9 -13 165 -166 0
7 -9 -13 -165 167 0
7 -9 -13 -165 -167 0
12 -6 -16 168 169 0
12 -6 -16 168 -169 0
12 -6 -16 -168 170 0
12 -6 -16 -168 -170 0
5 -15 -6 171 172 0
5 -15 -6 171 -172 0
5 -15 -6 -171 173 0
5 -15 -6 -171 -173 0
10 -14 18 174 175 0
10 -14 18 174 -175 0
10 -14 18 -174 176 0
10 -14 18 -174 -176 0
-13 7 18 177 178 0
-13 7 18 177 -178 0
-13 7 18 -177 179 0
-13 7 18 -177 -179 0
-3 14 -18 180 181 0
-3 14 -18 180 -181 0
-3 14 -18 -180 182 0
-3 14 -18 -180 -182 0
9 -15 -19 183 184 0
9 -15 -19 183 -184 0
9 -15 -19 -183 185 0
9 -15 -19 -183 -185 0
1 -4 -7 186 187 0
1 -4 -7 186 -187 0
1 -4 -7 -186 188 0
1 -4 -7 -186 -188 0
20 -13 18 189 190 0
20 -13 18 189 -190 0
20 -13 18 -189 191 0
20 -13 18 -189 -191 0
14 18 1 192 193 0
14 18 1 192 -193 0
14 18 1 -192 194 0
14 18 1 -192 -194 0
8 18 -7 195 196 0
8 18 -7 195 -196 0
8 18 -7 -195 197 0
8 18 -7 -195 -197 0
-11 -16 18 198 199 0
-11 -16 18 198 -199 0
-11 -16 18 -198 200 0
-11 -16 18 -198 -200 0
15 -17 2 201 202 0
15 -17 2 201 -202 0
15 -17 2 -201 203 0
15 -17 2 -201 -203 0
8 -9 18 204 205 0
8 -9 18 204 -205 0
8 -9 18 -204 206 0
8 -9 18 -204 -206 0
1 17 -2 207 208 0
1 17 -2 207 -208 0
1 17 -2 -207 209 0
1 17 -2 -207 -209 0
-13 -19 -18 210 211 0
-13 -19 -18 210 -211 0
-13 -19 -18 -210 212 0
-13 -19 -18 -210 -212 0
6 16 -20 213 214 0
6 16 -20 213 -214 0
6 16 -20 -213 215 0
6 16 -20 -213 -215 0
-6 -2 -16 216 217 0
-6 -2 -16 216 -217 0
-6 -2 -16 -216 218 0
-6 -2 -16 -216 -218 0
20 7 -14 219 220 0
20 7 -14 219 -220 0
20 7 -14 -219 221 0
20 7 -14 -219 -221 0
-8 3 17 222 223 0
-8 3 17 222 -223 0
-8 3 17 -222 224 0
-8 3 17 -222 -224 0
6 3 1 225 226 0
6 3 1 225 -226 0
6 3 1 -225 227 0
6 3 1 -225 -227 0
18 -6 -7 228 229 0
18 -6 -7 228 -229 0
18 -6 -7 -228 230 0
18 -6 -7 -228 -230 0
-5 16 2 231 232 0
-5 16 2 231 -232 0
-5 16 2 -231 233 0
-5 16 2 -231 -233 0
6 -12 -14 234 235 0
6 -12 -14 234 -235 0
6 -12 -14 -234 236 0
6 -12 -14 -234 -236 0
18 -13 19 237 238 0
18 -13 19 237 -238 0
18 -13 19 -237 239 0
18 -13 19 -237 -239 0
-11 19 -3 240 241 0
-11 19 -3 240 -241 0
-11 19 -3 -240 242 0
-11 19 -3 -240 -242 0
10 -6 -13 243 244 0
10 -6 -13 243 -244 0
10 -6 -13 -243 245 0
10 -6 -13 -243 -245 0
-5 2 18 246 247 0
-5 2 18 246 -247 0
-5 2 18 -246 248 0
-5 2 18 -246 -248 0
2 -17 -19 249 250 0
2 -17 -19 249 -250 0
2 -17 -19 -249 251 0
2 -17 -19 -249 -251 0
20 9 -13 252 253 0
20 9 -13 252 -253 0
20 9 -13 -252 254 0
20 9 -13 -252 -254 0
15 4 -16 255 256 0
15 4 -16 255 -256 0
15 4 -16 -255 257 0
15 4 -16 -255 -257 0
17 18 -2 258 259 0
17 18 -2 258 -259 0
17 18 -2 -258 260 0
17 18 -2 -258 -260 0
6 12 1 261 262 0
6 12 1 261 -262 0
6 12 1 -261 263 0
6 12 1 -261 -263 0
9 -10 -3 264 265 0
9 -10 -3 264 -265 0
9 -10 -3 -264 266 0
9 -10 -3 -264 -266 0
-2 -12 -8 267 268 0
-2 -12 -8 267 -268 0
-2 -12 -8 -267 269 0
-2 -12 -8 -267 -269 0
8 -10 18 270 271 0
8 -10 18 270 -271 0
8 -10 18 -270 272 0
8 -10 18 -270 -272 0
20 13 3 273 274 0
20 13 3 273 -274 0
20 13 3 -273 275 0
20 13 3 -273 -275 0
1 7 -9 276 277 0
1 7 -9 276 -277 0
1 7 -9 -276 278 0
1 7 -9 -276 -278 0
18 10 5 279 280 0
18 10 5 279 -280 0
18 10 5 -279 281 0
18 10 5 -279 -281 0
-1 16 20 282 283 0
-1 16 20 282 -283 0
-1 16 20 -282 284 0
-1 16 20 -282 -284 0
6 -7 11 285 286 0
6 -7 11 285 -286 0
6 -7 11 -285 287 0
6 -7 11 -285 -287 0
14 -11 15 288 289 0
14 -11 15 288 -289 0
14 -11 15 -288 290 0
14 -11 15 -288 -290 0
-4 -11 10 291 292 0
-4 -11 10 291 -292 0
-4 -11 10 -291 293 0
-4 -11 10 -291 -293 0
294 295 297 301 309 0
294 295 297 301 -309 0
294 295 297 -301 310 0
294 295 297 -301 -310 0
294 295 -297 302 311 0
294 295 -297 302 -311 0
294 295 -297 -302 312 0
294 295 -297 -302 -312 0
294 -295 298 303 313 0
294 -295 298 303 -313 0
294 -295 298 -303 314 0
294 -295 298 -303 -314 0
294 -295 -298 304 315 0
294 -295 -298 304 -315 0
294 -295 -298 -304 316 0
294 -295 -298 -304 -316 0
-294 296 299 305 317 0
-294 296 299 305 -317 0
-294 296 299 -305 318 0
-294 296 299 -305 -318 0
-294 296 -299 306 319 0
-294 296 -299 306 -319 0
-294 296 -299 -306 320 0
-294 296 -299 -306 -320 0
-294 -296 300 307 321 0
-294 -296 300 307 -321 0
-294 -296 300 -307 322 0
-294 -296 300 -307 -322 0
-294 -296 -300 308 323 0
-294 -296 -300 308 -323 0
-294 -296 -300 -308 324 0
-294 -296 -300 -308 -324 0
325 326 328 332 340 0
325 326 328 332 -340 0
325 326 328 -332 341 0
325 326 328 -332 -341 0
325 326 -328 333 342 0
325 326 -328 333 -342 0
325 326 -328 -333 343 0
325 326 -328 -333 -343 0
325 -326 329 334 344 0
325 -326 329 334 -344 0
325 -326 329 -334 345 0
325 -326 329 -334 -345 0
325 -326 -329 335 346 0
325 -326 -329 335 -346 0
325 -326 -329 -335 347 0
325 -326 -329 -335 -347 0
-325 327 330 336 348 0
-325 327 330 336 -348 0
-325 327 330 -336 349 0
-325 327 330 -336 -349 0
-325 327 -330 337 350 0
-325 327 -330 337 -350 0
-325 327 -330 -337 351 0
-325 327 -330 -337 -351 0
-325 -327 331 338 352 0
-325 -327 331 338 -352 0
-325 -327 331 -338 353 0
-325 -327 331 -338 -353 0
-325 -327 -331 339 354 0
-325 -327 -331 339 -354 0
-325 -327 -331 -339 355 0
-325 -327 -331 -339 -355 0
356 357 359 363 371 0
356 357 359 363 -371 0
356 357 359 -363 372 0
356 357 359 -363 -372 0
356 357 -359 364 373 0
356 357 -359 364 -373 0
356 357 -359 -364 374 0
356 357 -359 -364 -374 0
356 -357 360 365 375 0
356 -357 360 365 -375 0
356 -357 360 -365 376 0
356 -357 360 -365 -376 0
356 -357 -360 366 377 0
356 -357 -360 366 -377 0
356 -357 -360 -366 378 0
356 -357 -360 -366 -378 0
-356 358 361 367 379 0
-356 358 361 367 -379 0
-356 358 361 -367 380 0
-356 358 361 -367 -380 0
-356 358 -361 368 381 0
-356 358 -361 368 -381 0
-356 358 -361 -368 382 0
-356 358 -361 -368 -382 0
-356 -358 362 369 383 0
-356 -358 362 369 -383 0
-356 -358 362 -369 384 0
-356 -358 362 -369 -384 0
-356 -358 -362 370 385 0
-356 -358 -362 370 -385 0
-356 -358 -362 -370 386 0
-356 -358 -362 -370 -386 0

